2023/05/23
Julia is now 1.9.0
previous version was 1.7.2
2023/11/29
gurobi is now 11.0.0
previous version was 10.0.2
solving instance knapsack 10 7 sinabc2
feasible solution found by trivial heuristic after 0.0 seconds, objective value 0.000000e+00
presolving:
(round 1, fast)       10 del vars, 20 del conss, 0 add conss, 10 chg bounds, 0 chg sides, 0 chg coeffs, 0 upgd conss, 0 impls, 0 clqs
(round 2, fast)       10 del vars, 20 del conss, 0 add conss, 20 chg bounds, 0 chg sides, 0 chg coeffs, 0 upgd conss, 0 impls, 0 clqs
   (0.0s) symmetry computation started: requiring (bin +, int +, cont +), (fixed: bin -, int -, cont -)
   (0.0s) no symmetry present
presolving (3 rounds: 3 fast, 1 medium, 1 exhaustive):
 10 deleted vars, 20 deleted constraints, 0 added constraints, 20 tightened bounds, 0 added holes, 0 changed sides, 0 changed coefficients
 0 implications, 0 cliques
presolved problem has 20 variables (0 bin, 0 int, 0 impl, 20 cont) and 11 constraints
      1 constraints of type <linear>
     10 constraints of type <nonlinear>
Presolving Time: 0.00

 time | node  | left  |LP iter|LP it/n|mem/heur|mdpt |vars |cons |rows |cuts |sepa|confs|strbr|  dualbound   | primalbound  |  gap   | compl. 
t 0.0s|     1 |     0 |     0 |     - | trivial|   0 |  20 |  11 |   0 |   0 |  0 |   0 |   0 |-5.068588e+02 | 0.000000e+00 |    Inf | unknown
  0.0s|     1 |     0 |    60 |     - |  1251k |   0 |  80 |  11 |  81 |   0 |  0 |   0 |   0 |-3.403506e+02 | 0.000000e+00 |    Inf | unknown
L 0.0s|     1 |     0 |    60 |     - |undercov|   0 |  80 |  11 |  81 |   0 |  0 |   0 |   0 |-3.403506e+02 |-1.367249e+02 | 148.93%| unknown
L 0.0s|     1 |     0 |    60 |     - |undercov|   0 |  80 |  11 |  81 |   0 |  0 |   0 |   0 |-3.403506e+02 |-1.375983e+02 | 147.35%| unknown
  0.1s|     1 |     0 |    75 |     - |  1373k |   0 |  80 |  11 | 102 |  21 |  1 |   0 |   0 |-3.133515e+02 |-1.375983e+02 | 127.73%| unknown
  0.1s|     1 |     0 |    75 |     - |  1373k |   0 |  80 |  11 | 102 |  21 |  1 |   0 |   0 |-3.133515e+02 |-1.375983e+02 | 127.73%| unknown
  0.1s|     1 |     0 |    76 |     - |  1390k |   0 |  80 |  11 | 103 |  22 |  2 |   0 |   0 |-3.133515e+02 |-1.375983e+02 | 127.73%| unknown
  0.1s|     1 |     0 |   240 |     - |  1403k |   0 |  80 |  11 | 103 |  22 |  4 |   0 |   0 |-3.133515e+02 |-1.375983e+02 | 127.73%| unknown
  0.1s|     1 |     0 |   251 |     - |  1403k |   0 |  80 |  11 | 110 |  29 |  5 |   0 |   0 |-2.597918e+02 |-1.375983e+02 |  88.80%| unknown
  0.1s|     1 |     0 |   258 |     - |  1403k |   0 |  80 |  11 | 118 |  37 |  6 |   0 |   0 |-2.541614e+02 |-1.375983e+02 |  84.71%| unknown
  0.1s|     1 |     0 |   267 |     - |  1407k |   0 |  80 |  11 | 126 |  45 |  7 |   0 |   0 |-2.515019e+02 |-1.375983e+02 |  82.78%| unknown
  0.1s|     1 |     0 |   275 |     - |  1407k |   0 |  80 |  11 | 134 |  53 |  8 |   0 |   0 |-2.511992e+02 |-1.375983e+02 |  82.56%| unknown
  0.1s|     1 |     0 |   277 |     - |  1407k |   0 |  80 |  11 | 136 |  55 |  9 |   0 |   0 |-2.511931e+02 |-1.375983e+02 |  82.56%| unknown
  0.1s|     1 |     2 |   277 |     - |  1411k |   0 |  80 |  11 | 136 |  55 | 11 |   0 |   0 |-2.511931e+02 |-1.375983e+02 |  82.56%| unknown
t 0.2s|     8 |     7 |   401 |  41.1 |  trysol|   5 |  80 |  11 |   0 | 143 |  0 |   0 |   0 |-2.511931e+02 |-1.551279e+02 |  61.93%| unknown
 time | node  | left  |LP iter|LP it/n|mem/heur|mdpt |vars |cons |rows |cuts |sepa|confs|strbr|  dualbound   | primalbound  |  gap   | compl. 
t 0.2s|    41 |    40 |  1382 |  31.7 |  trysol|   6 |  80 |  11 |   0 | 735 |  0 |   0 |   0 |-2.355993e+02 |-1.641933e+02 |  43.49%| unknown
  0.3s|   100 |   101 |  3560 |  34.8 |  2282k |   8 |  80 |  11 | 127 |1882 | 10 |   0 |   0 |-2.145254e+02 |-1.641933e+02 |  30.65%| unknown
t 0.4s|   112 |   111 |  3957 |  34.6 |  trysol|   8 |  80 |  11 |   0 |2102 |  0 |   0 |   0 |-2.125861e+02 |-1.712380e+02 |  24.15%| unknown
t 0.5s|   178 |   156 |  6091 |  33.8 |  trysol|  13 |  80 |  11 |   0 |3142 |  0 |   0 |   0 |-2.021205e+02 |-1.796117e+02 |  12.53%|  24.89%
  0.5s|   200 |   180 |  6929 |  34.3 |  3291k |  13 |  80 |  11 | 129 |3570 |  3 |   0 |   0 |-2.010148e+02 |-1.796117e+02 |  11.92%|  26.20%
  0.7s|   300 |   248 | 10097 |  33.4 |  3608k |  13 |  80 |  11 | 111 |5115 |  2 |   0 |   0 |-1.992083e+02 |-1.796117e+02 |  10.91%|  37.84%
t 0.7s|   315 |   170 | 10398 |  32.8 |  trysol|  13 |  80 |  11 |   0 |5288 |  0 |   0 |   0 |-1.991849e+02 |-1.865908e+02 |   6.75%|  47.84%
t 0.7s|   359 |   156 | 11298 |  31.2 |  trysol|  14 |  80 |  11 |   0 |5748 |  0 |   0 |   0 |-1.969468e+02 |-1.882715e+02 |   4.61%|  57.84%
  0.8s|   400 |   171 | 12075 |  30.0 |  3743k |  15 |  80 |  11 | 117 |6126 |  2 |   0 |   0 |-1.946671e+02 |-1.882715e+02 |   3.40%|  64.01%
t 0.9s|   477 |   180 | 13414 |  27.9 |  trysol|  16 |  80 |  11 |   0 |6797 |  0 |   0 |   0 |-1.931826e+02 |-1.883192e+02 |   2.58%|  75.12%
  0.9s|   500 |   189 | 13902 |  27.6 |  3817k |  16 |  80 |  11 | 153 |7023 |  9 |   0 |   0 |-1.928404e+02 |-1.883192e+02 |   2.40%|  77.41%
t 0.9s|   509 |   190 | 14047 |  27.4 |  trysol|  17 |  80 |  11 |   0 |7091 |  0 |   0 |   0 |-1.928404e+02 |-1.883852e+02 |   2.36%|  77.95%
t 1.0s|   580 |   138 | 15281 |  26.2 |  trysol|  18 |  80 |  11 |   0 |7713 |  0 |   0 |   0 |-1.922444e+02 |-1.897191e+02 |   1.33%|  85.40%
  1.0s|   600 |   138 | 15481 |  25.7 |  3981k |  21 |  80 |  11 | 119 |7837 |  1 |   0 |   0 |-1.919170e+02 |-1.897191e+02 |   1.16%|  86.90%
  1.1s|   700 |   122 | 16525 |  23.5 |  4037k |  22 |  80 |  11 | 141 |8420 |  0 |   0 |   0 |-1.911781e+02 |-1.897191e+02 |   0.77%|  92.87%
 time | node  | left  |LP iter|LP it/n|mem/heur|mdpt |vars |cons |rows |cuts |sepa|confs|strbr|  dualbound   | primalbound  |  gap   | compl. 
  1.2s|   800 |    70 | 17300 |  21.5 |  4052k |  22 |  80 |  11 | 201 |8882 |  4 |   0 |   0 |-1.908041e+02 |-1.897191e+02 |   0.57%|  97.63%
t 1.2s|   822 |    69 | 17489 |  21.2 |  trysol|  25 |  80 |  11 |   0 |8974 |  0 |   0 |   0 |-1.906558e+02 |-1.897275e+02 |   0.49%|  97.89%
t 1.2s|   841 |    65 | 17679 |  20.9 |  trysol|  26 |  80 |  11 |   0 |9061 |  0 |   0 |   0 |-1.906558e+02 |-1.897299e+02 |   0.49%|  97.97%
  1.3s|   900 |    70 | 18116 |  20.0 |  4333k |  32 |  80 |  11 | 140 |9293 |  0 |   0 |   0 |-1.905392e+02 |-1.897299e+02 |   0.43%|  98.68%
t 1.3s|   917 |    77 | 18225 |  19.8 |  trysol|  33 |  80 |  11 |   0 |9354 |  0 |   0 |   0 |-1.903686e+02 |-1.897300e+02 |   0.34%|  98.82%
t 1.3s|   923 |    81 | 18270 |  19.7 |  trysol|  35 |  80 |  11 |   0 |9376 |  0 |   0 |   0 |-1.903686e+02 |-1.897300e+02 |   0.34%|  98.82%
t 1.3s|   958 |    82 | 18484 |  19.2 |  trysol|  37 |  80 |  11 |   0 |9482 |  0 |   0 |   0 |-1.903686e+02 |-1.897301e+02 |   0.34%|  98.82%
t 1.3s|   978 |    76 | 18583 |  18.9 |  trysol|  39 |  80 |  11 |   0 |9526 |  0 |   0 |   0 |-1.902693e+02 |-1.897301e+02 |   0.28%|  98.89%
* 1.4s|   994 |    78 | 18672 |  18.7 |    LP  |  41 |  80 |  11 | 260 |9569 |  5 |   0 |   0 |-1.902400e+02 |-1.897301e+02 |   0.27%|  98.94%
  1.4s|  1000 |    78 | 18693 |  18.6 |  4989k |  41 |  80 |  11 | 252 |9581 |  1 |   0 |   0 |-1.902400e+02 |-1.897301e+02 |   0.27%|  98.94%
* 1.4s|  1083 |    83 | 18974 |  17.4 |    LP  |  46 |  80 |  11 | 264 |9760 |  3 |   0 |   0 |-1.900901e+02 |-1.897301e+02 |   0.19%|  99.07%
* 1.4s|  1084 |    82 | 18975 |  17.4 |    LP  |  46 |  80 |  11 | 263 |9761 |  2 |   0 |   0 |-1.900901e+02 |-1.897301e+02 |   0.19%|  99.07%
  1.4s|  1100 |    76 | 19019 |  17.2 |  5147k |  48 |  80 |  11 | 259 |9795 |  3 |   0 |   0 |-1.900642e+02 |-1.897301e+02 |   0.18%|  99.10%
* 1.5s|  1124 |    66 | 19118 |  16.9 |    LP  |  48 |  80 |  11 | 266 |9868 |  2 |   0 |   0 |-1.900618e+02 |-1.897301e+02 |   0.17%|  99.13%
d 1.5s|  1160 |    40 | 19205 |  16.5 |fracdivi|  48 |  80 |  11 | 219 |9908 |  1 |   0 |   0 |-1.900467e+02 |-1.897301e+02 |   0.17%|  99.18%
 time | node  | left  |LP iter|LP it/n|mem/heur|mdpt |vars |cons |rows |cuts |sepa|confs|strbr|  dualbound   | primalbound  |  gap   | compl. 
  1.5s|  1200 |     0 | 19287 |  16.0 |  5182k |  48 |  80 |  11 | 114 |9939 |  0 |   0 |   0 |-1.897301e+02 |-1.897301e+02 |   0.00%|  99.93%

SCIP Status        : problem is solved [optimal solution found]
Solving Time (sec) : 1.50
Solving Nodes      : 1200
Primal Bound       : -1.89730080431229e+02 (27 solutions)
Dual Bound         : -1.89730080431229e+02
Gap                : 0.00 %
Min nlobj[1,1] + nlobj[1,2] + nlobj[1,3] + nlobj[1,4] + nlobj[1,5] + nlobj[1,6] + nlobj[1,7] + nlobj[1,8] + nlobj[1,9] + nlobj[1,10]
Subject to
 x[1,1] - 100 onoff[1,1] ≤ 0
 x[1,2] - 100 onoff[1,2] ≤ 0
 x[1,3] - 100 onoff[1,3] ≤ 0
 x[1,4] - 100 onoff[1,4] ≤ 0
 x[1,5] - 100 onoff[1,5] ≤ 0
 x[1,6] - 100 onoff[1,6] ≤ 0
 x[1,7] - 100 onoff[1,7] ≤ 0
 x[1,8] - 100 onoff[1,8] ≤ 0
 x[1,9] - 100 onoff[1,9] ≤ 0
 x[1,10] - 100 onoff[1,10] ≤ 0
 45 x[1,1] + 52 x[1,2] + 75 x[1,3] + 22 x[1,4] + 48 x[1,5] + 79 x[1,6] + 16 x[1,7] + 27 x[1,8] + 5 x[1,9] + 82 x[1,10] ≤ 22550
 x[1,1] ≤ 100
 x[1,2] ≤ 100
 x[1,3] ≤ 100
 x[1,4] ≤ 100
 x[1,5] ≤ 100
 x[1,6] ≤ 100
 x[1,7] ≤ 100
 x[1,8] ≤ 100
 x[1,9] ≤ 100
 x[1,10] ≤ 100
 x[1,1] ≥ 0
 x[1,2] ≥ 0
 x[1,3] ≥ 0
 x[1,4] ≥ 0
 x[1,5] ≥ 0
 x[1,6] ≥ 0
 x[1,7] ≥ 0
 x[1,8] ≥ 0
 x[1,9] ≥ 0
 x[1,10] ≥ 0
 nlobj[1,1] ≥ -10000000000
 nlobj[1,2] ≥ -10000000000
 nlobj[1,3] ≥ -10000000000
 nlobj[1,4] ≥ -10000000000
 nlobj[1,5] ≥ -10000000000
 nlobj[1,6] ≥ -10000000000
 nlobj[1,7] ≥ -10000000000
 nlobj[1,8] ≥ -10000000000
 nlobj[1,9] ≥ -10000000000
 nlobj[1,10] ≥ -10000000000
 x[1,1] ≤ 100
 x[1,2] ≤ 100
 x[1,3] ≤ 100
 x[1,4] ≤ 100
 x[1,5] ≤ 100
 x[1,6] ≤ 100
 x[1,7] ≤ 100
 x[1,8] ≤ 100
 x[1,9] ≤ 100
 x[1,10] ≤ 100
 nlobj[1,1] ≤ 10000000000
 nlobj[1,2] ≤ 10000000000
 nlobj[1,3] ≤ 10000000000
 nlobj[1,4] ≤ 10000000000
 nlobj[1,5] ≤ 10000000000
 nlobj[1,6] ≤ 10000000000
 nlobj[1,7] ≤ 10000000000
 nlobj[1,8] ≤ 10000000000
 nlobj[1,9] ≤ 10000000000
 nlobj[1,10] ≤ 10000000000
 onoff[1,1] binary
 onoff[1,2] binary
 onoff[1,3] binary
 onoff[1,4] binary
 onoff[1,5] binary
 onoff[1,6] binary
 onoff[1,7] binary
 onoff[1,8] binary
 onoff[1,9] binary
 onoff[1,10] binary
 (subexpression[1] - nlobj[1,1]) - 0.0 ≤ 0
 (subexpression[2] - nlobj[1,2]) - 0.0 ≤ 0
 (subexpression[3] - nlobj[1,3]) - 0.0 ≤ 0
 (subexpression[4] - nlobj[1,4]) - 0.0 ≤ 0
 (subexpression[5] - nlobj[1,5]) - 0.0 ≤ 0
 (subexpression[6] - nlobj[1,6]) - 0.0 ≤ 0
 (subexpression[7] - nlobj[1,7]) - 0.0 ≤ 0
 (subexpression[8] - nlobj[1,8]) - 0.0 ≤ 0
 (subexpression[9] - nlobj[1,9]) - 0.0 ≤ 0
 (subexpression[10] - nlobj[1,10]) - 0.0 ≤ 0
With NL expressions
 subexpression[1]: -1.0 * (0.8655992976436866 * (sin(0.05 * x[1,1]) + 0.05 * x[1,1]) ^ 2.0)
 subexpression[2]: -1.0 * (0.10977267596678929 * (sin(0.05 * x[1,2]) + 0.05 * x[1,2]) ^ 2.0)
 subexpression[3]: -1.0 * (1.2085543289690441 * (sin(0.05 * x[1,3]) + 0.05 * x[1,3]) ^ 2.0)
 subexpression[4]: -1.0 * (0.06681949751958513 * (sin(0.05 * x[1,4]) + 0.05 * x[1,4]) ^ 2.0)
 subexpression[5]: -1.0 * (4.260955966483954 * (sin(0.05 * x[1,5]) + 0.05 * x[1,5]) ^ 2.0)
 subexpression[6]: -1.0 * (1.5934951983744106 * (sin(0.05 * x[1,6]) + 0.05 * x[1,6]) ^ 2.0)
 subexpression[7]: -1.0 * (0.13895887809029767 * (sin(0.05 * x[1,7]) + 0.05 * x[1,7]) ^ 2.0)
 subexpression[8]: -1.0 * (2.234681572277338 * (sin(0.05 * x[1,8]) + 0.05 * x[1,8]) ^ 2.0)
 subexpression[9]: -1.0 * (0.4856776261122191 * (sin(0.05 * x[1,9]) + 0.05 * x[1,9]) ^ 2.0)
 subexpression[10]: -1.0 * (3.1148950987266484 * (sin(0.05 * x[1,10]) + 0.05 * x[1,10]) ^ 2.0)

primal_bound = -189.73008043122866, dual_bound = -189.73008043122866, gap = 0.0, time = 4.74
